c vehicle routing problem with time windows
c solomon RC105_25
c
c problem vertices edges capacity
p vrptw 27 650 200
c
c vertex a b demand x y
v 0 0 2400 0 40 50
v 1 710 1910 20 25 85
v 2 300 1500 30 22 75
v 3 640 1840 10 22 85
v 4 1510 1610 40 20 80
v 5 400 1600 20 20 85
v 6 960 1230 20 18 75
v 7 350 1550 20 15 75
v 8 1010 1110 10 15 80
v 9 1010 1110 20 10 35
v 10 1230 1440 30 10 40
v 11 690 790 40 8 40
v 12 320 1520 20 8 45
v 13 1520 1620 10 5 35
v 14 350 1170 10 5 45
v 15 680 780 20 2 40
v 16 590 1140 20 0 40
v 17 1470 1800 20 0 45
v 18 790 1240 20 44 5
v 19 580 1150 40 42 10
v 20 1110 1620 10 42 15
v 21 450 1650 10 40 5
v 22 940 1190 40 40 15
v 23 750 850 30 38 5
v 24 1280 1940 10 38 15
v 25 1710 1810 20 35 5
v 26 0 2400 0 40 50
c
c source target cost time
a 0 1 380 380
a 0 2 308 308
a 0 3 393 393
a 0 4 360 360
a 0 5 403 403
a 0 6 333 333
a 0 7 353 353
a 0 8 390 390
a 0 9 335 335
a 0 10 316 316
a 0 11 335 335
a 0 12 323 323
a 0 13 380 380
a 0 14 353 353
a 0 15 392 392
a 0 16 412 412
a 0 17 403 403
a 0 18 451 451
a 0 19 400 400
a 0 20 350 350
a 0 21 450 450
a 0 22 350 350
a 0 23 450 450
a 0 24 350 350
a 0 25 452 452
a 1 2 104 204
a 1 3 30 130
a 1 4 70 170
a 1 5 50 150
a 1 6 122 222
a 1 7 141 241
a 1 8 111 211
a 1 9 522 622
a 1 10 474 574
a 1 11 481 581
a 1 12 434 534
a 1 13 538 638
a 1 14 447 547
a 1 15 505 605
a 1 16 514 614
a 1 17 471 571
a 1 18 822 922
a 1 19 769 869
a 1 20 720 820
a 1 21 813 913
a 1 22 715 815
a 1 23 810 910
a 1 24 711 811
a 1 25 806 906
a 1 26 380 480
a 2 1 104 204
a 2 3 100 200
a 2 4 53 153
a 2 5 101 201
a 2 6 40 140
a 2 7 70 170
a 2 8 86 186
a 2 9 417 517
a 2 10 370 470
a 2 11 376 476
a 2 12 331 431
a 2 13 434 534
a 2 14 344 444
a 2 15 403 503
a 2 16 413 513
a 2 17 372 472
a 2 18 733 833
a 2 19 680 780
a 2 20 632 732
a 2 21 722 822
a 2 22 626 726
a 2 23 718 818
a 2 24 620 720
a 2 25 711 811
a 2 26 308 408
a 3 1 30 130
a 3 2 100 200
a 3 4 53 153
a 3 5 20 120
a 3 6 107 207
a 3 7 122 222
a 3 8 86 186
a 3 9 514 614
a 3 10 465 565
a 3 11 471 571
a 3 12 423 523
a 3 13 528 628
a 3 14 434 534
a 3 15 492 592
a 3 16 500 600
a 3 17 456 556
a 3 18 829 929
a 3 19 776 876
a 3 20 728 828
a 3 21 820 920
a 3 22 722 822
a 3 23 815 915
a 3 24 718 818
a 3 25 810 910
a 3 26 393 493
a 4 1 70 170
a 4 2 53 153
a 4 3 53 153
a 4 5 50 150
a 4 6 53 153
a 4 7 70 170
a 4 8 50 150
a 4 9 460 560
a 4 10 412 512
a 4 11 417 517
a 4 12 370 470
a 4 13 474 574
a 4 14 380 480
a 4 15 438 538
a 4 16 447 547
a 4 17 403 503
a 4 18 787 887
a 4 19 733 833
a 4 20 686 786
a 4 21 776 876
a 4 22 680 780
a 4 23 771 871
a 4 24 674 774
a 4 25 764 864
a 4 26 360 460
a 5 1 50 150
a 5 2 101 201
a 5 3 20 120
a 5 4 50 150
a 5 6 101 201
a 5 7 111 211
a 5 8 70 170
a 5 9 509 609
a 5 10 460 560
a 5 11 465 565
a 5 12 417 517
a 5 13 522 622
a 5 14 427 527
a 5 15 484 584
a 5 16 492 592
a 5 17 447 547
a 5 18 835 935
a 5 19 781 881
a 5 20 733 833
a 5 21 824 924
a 5 22 728 828
a 5 23 820 920
a 5 24 722 822
a 5 25 813 913
a 5 26 403 503
a 6 1 122 222
a 6 2 40 140
a 6 3 107 207
a 6 4 53 153
a 6 5 101 201
a 6 7 30 130
a 6 8 58 158
a 6 9 407 507
a 6 10 359 459
a 6 11 364 464
a 6 12 316 416
a 6 13 420 520
a 6 14 326 426
a 6 15 384 484
a 6 16 393 493
a 6 17 349 449
a 6 18 746 846
a 6 19 692 792
a 6 20 646 746
a 6 21 733 833
a 6 22 639 739
a 6 23 728 828
a 6 24 632 732
a 6 25 720 820
a 6 26 333 433
a 7 1 141 241
a 7 2 70 170
a 7 3 122 222
a 7 4 70 170
a 7 5 111 211
a 7 6 30 130
a 7 8 50 150
a 7 9 403 503
a 7 10 353 453
a 7 11 356 456
a 7 12 308 408
a 7 13 412 512
a 7 14 316 416
a 7 15 373 473
a 7 16 380 480
a 7 17 335 435
a 7 18 757 857
a 7 19 703 803
a 7 20 657 757
a 7 21 743 843
a 7 22 650 750
a 7 23 736 836
a 7 24 642 742
a 7 25 728 828
a 7 26 353 453
a 8 1 111 211
a 8 2 86 186
a 8 3 86 186
a 8 4 50 150
a 8 5 70 170
a 8 6 58 158
a 8 7 50 150
a 8 9 452 552
a 8 10 403 503
a 8 11 406 506
a 8 12 356 456
a 8 13 460 560
a 8 14 364 464
a 8 15 420 520
a 8 16 427 527
a 8 17 380 480
a 8 18 804 904
a 8 19 750 850
a 8 20 703 803
a 8 21 790 890
a 8 22 696 796
a 8 23 784 884
a 8 24 689 789
a 8 25 776 876
a 8 26 390 490
a 9 1 522 622
a 9 2 417 517
a 9 3 514 614
a 9 4 460 560
a 9 5 509 609
a 9 6 407 507
a 9 7 403 503
a 9 8 452 552
a 9 10 50 150
a 9 11 53 153
a 9 12 101 201
a 9 13 50 150
a 9 14 111 211
a 9 15 94 194
a 9 16 111 211
a 9 17 141 241
a 9 18 453 553
a 9 19 406 506
a 9 20 377 477
a 9 21 424 524
a 9 22 360 460
a 9 23 410 510
a 9 24 344 444
a 9 25 390 490
a 9 26 335 435
a 10 1 474 574
a 10 2 370 470
a 10 3 465 565
a 10 4 412 512
a 10 5 460 560
a 10 6 359 459
a 10 7 353 453
a 10 8 403 503
a 10 9 50 150
a 10 11 20 120
a 10 12 53 153
a 10 13 70 170
a 10 14 70 170
a 10 15 80 180
a 10 16 100 200
a 10 17 111 211
a 10 18 487 587
a 10 19 438 538
a 10 20 406 506
a 10 21 460 560
a 10 22 390 490
a 10 23 448 548
a 10 24 375 475
a 10 25 430 530
a 10 26 316 416
a 11 1 481 581
a 11 2 376 476
a 11 3 471 571
a 11 4 417 517
a 11 5 465 565
a 11 6 364 464
a 11 7 356 456
a 11 8 406 506
a 11 9 53 153
a 11 10 20 120
a 11 12 50 150
a 11 13 58 158
a 11 14 58 158
a 11 15 60 160
a 11 16 80 180
a 11 17 94 194
a 11 18 502 602
a 11 19 453 553
a 11 20 422 522
a 11 21 474 574
a 11 22 406 506
a 11 23 460 560
a 11 24 390 490
a 11 25 442 542
a 11 26 335 435
a 12 1 434 534
a 12 2 331 431
a 12 3 423 523
a 12 4 370 470
a 12 5 417 517
a 12 6 316 416
a 12 7 308 408
a 12 8 356 456
a 12 9 101 201
a 12 10 53 153
a 12 11 50 150
a 12 13 104 204
a 12 14 30 130
a 12 15 78 178
a 12 16 94 194
a 12 17 80 180
a 12 18 538 638
a 12 19 487 587
a 12 20 453 553
a 12 21 512 612
a 12 22 438 538
a 12 23 500 600
a 12 24 424 524
a 12 25 482 582
a 12 26 323 423
a 13 1 538 638
a 13 2 434 534
a 13 3 528 628
a 13 4 474 574
a 13 5 522 622
a 13 6 420 520
a 13 7 412 512
a 13 8 460 560
a 13 9 50 150
a 13 10 70 170
a 13 11 58 158
a 13 12 104 204
a 13 14 100 200
a 13 15 58 158
a 13 16 70 170
a 13 17 111 211
a 13 18 492 592
a 13 19 446 546
a 13 20 420 520
a 13 21 460 560
a 13 22 403 503
a 13 23 445 545
a 13 24 385 485
a 13 25 424 524
a 13 26 380 480
a 14 1 447 547
a 14 2 344 444
a 14 3 434 534
a 14 4 380 480
a 14 5 427 527
a 14 6 326 426
a 14 7 316 416
a 14 8 364 464
a 14 9 111 211
a 14 10 70 170
a 14 11 58 158
a 14 12 30 130
a 14 13 100 200
a 14 15 58 158
a 14 16 70 170
a 14 17 50 150
a 14 18 558 658
a 14 19 509 609
a 14 20 476 576
a 14 21 531 631
a 14 22 460 560
a 14 23 518 618
a 14 24 445 545
a 14 25 500 600
a 14 26 353 453
a 15 1 505 605
a 15 2 403 503
a 15 3 492 592
a 15 4 438 538
a 15 5 484 584
a 15 6 384 484
a 15 7 373 473
a 15 8 420 520
a 15 9 94 194
a 15 10 80 180
a 15 11 60 160
a 15 12 78 178
a 15 13 58 158
a 15 14 58 158
a 15 16 20 120
a 15 17 53 153
a 15 18 546 646
a 15 19 500 600
a 15 20 471 571
a 15 21 516 616
a 15 22 454 554
a 15 23 502 602
a 15 24 438 538
a 15 25 481 581
a 15 26 392 492
a 16 1 514 614
a 16 2 413 513
a 16 3 500 600
a 16 4 447 547
a 16 5 492 592
a 16 6 393 493
a 16 7 380 480
a 16 8 427 527
a 16 9 111 211
a 16 10 100 200
a 16 11 80 180
a 16 12 94 194
a 16 13 70 170
a 16 14 70 170
a 16 15 20 120
a 16 17 50 150
a 16 18 562 662
a 16 19 516 616
a 16 20 488 588
a 16 21 531 631
a 16 22 471 571
a 16 23 516 616
a 16 24 454 554
a 16 25 494 594
a 16 26 412 512
a 17 1 471 571
a 17 2 372 472
a 17 3 456 556
a 17 4 403 503
a 17 5 447 547
a 17 6 349 449
a 17 7 335 435
a 17 8 380 480
a 17 9 141 241
a 17 10 111 211
a 17 11 94 194
a 17 12 80 180
a 17 13 111 211
a 17 14 50 150
a 17 15 53 153
a 17 16 50 150
a 17 18 594 694
a 17 19 546 646
a 17 20 516 616
a 17 21 565 665
a 17 22 500 600
a 17 23 551 651
a 17 24 484 584
a 17 25 531 631
a 17 26 403 503
a 18 1 822 922
a 18 2 733 833
a 18 3 829 929
a 18 4 787 887
a 18 5 835 935
a 18 6 746 846
a 18 7 757 857
a 18 8 804 904
a 18 9 453 553
a 18 10 487 587
a 18 11 502 602
a 18 12 538 638
a 18 13 492 592
a 18 14 558 658
a 18 15 546 646
a 18 16 562 662
a 18 17 594 694
a 18 19 53 153
a 18 20 101 201
a 18 21 40 140
a 18 22 107 207
a 18 23 60 160
a 18 24 116 216
a 18 25 90 190
a 18 26 451 551
a 19 1 769 869
a 19 2 680 780
a 19 3 776 876
a 19 4 733 833
a 19 5 781 881
a 19 6 692 792
a 19 7 703 803
a 19 8 750 850
a 19 9 406 506
a 19 10 438 538
a 19 11 453 553
a 19 12 487 587
a 19 13 446 546
a 19 14 509 609
a 19 15 500 600
a 19 16 516 616
a 19 17 546 646
a 19 18 53 153
a 19 20 50 150
a 19 21 53 153
a 19 22 53 153
a 19 23 64 164
a 19 24 64 164
a 19 25 86 186
a 19 26 400 500
a 20 1 720 820
a 20 2 632 732
a 20 3 728 828
a 20 4 686 786
a 20 5 733 833
a 20 6 646 746
a 20 7 657 757
a 20 8 703 803
a 20 9 377 477
a 20 10 406 506
a 20 11 422 522
a 20 12 453 553
a 20 13 420 520
a 20 14 476 576
a 20 15 471 571
a 20 16 488 588
a 20 17 516 616
a 20 18 101 201
a 20 19 50 150
a 20 21 101 201
a 20 22 20 120
a 20 23 107 207
a 20 24 40 140
a 20 25 122 222
a 20 26 350 450
a 21 1 813 913
a 21 2 722 822
a 21 3 820 920
a 21 4 776 876
a 21 5 824 924
a 21 6 733 833
a 21 7 743 843
a 21 8 790 890
a 21 9 424 524
a 21 10 460 560
a 21 11 474 574
a 21 12 512 612
a 21 13 460 560
a 21 14 531 631
a 21 15 516 616
a 21 16 531 631
a 21 17 565 665
a 21 18 40 140
a 21 19 53 153
a 21 20 101 201
a 21 22 100 200
a 21 23 20 120
a 21 24 101 201
a 21 25 50 150
a 21 26 450 550
a 22 1 715 815
a 22 2 626 726
a 22 3 722 822
a 22 4 680 780
a 22 5 728 828
a 22 6 639 739
a 22 7 650 750
a 22 8 696 796
a 22 9 360 460
a 22 10 390 490
a 22 11 406 506
a 22 12 438 538
a 22 13 403 503
a 22 14 460 560
a 22 15 454 554
a 22 16 471 571
a 22 17 500 600
a 22 18 107 207
a 22 19 53 153
a 22 20 20 120
a 22 21 100 200
a 22 23 101 201
a 22 24 20 120
a 22 25 111 211
a 22 26 350 450
a 23 1 810 910
a 23 2 718 818
a 23 3 815 915
a 23 4 771 871
a 23 5 820 920
a 23 6 728 828
a 23 7 736 836
a 23 8 784 884
a 23 9 410 510
a 23 10 448 548
a 23 11 460 560
a 23 12 500 600
a 23 13 445 545
a 23 14 518 618
a 23 15 502 602
a 23 16 516 616
a 23 17 551 651
a 23 18 60 160
a 23 19 64 164
a 23 20 107 207
a 23 21 20 120
a 23 22 101 201
a 23 24 100 200
a 23 25 30 130
a 23 26 450 550
a 24 1 711 811
a 24 2 620 720
a 24 3 718 818
a 24 4 674 774
a 24 5 722 822
a 24 6 632 732
a 24 7 642 742
a 24 8 689 789
a 24 9 344 444
a 24 10 375 475
a 24 11 390 490
a 24 12 424 524
a 24 13 385 485
a 24 14 445 545
a 24 15 438 538
a 24 16 454 554
a 24 17 484 584
a 24 18 116 216
a 24 19 64 164
a 24 20 40 140
a 24 21 101 201
a 24 22 20 120
a 24 23 100 200
a 24 25 104 204
a 24 26 350 450
a 25 1 806 906
a 25 2 711 811
a 25 3 810 910
a 25 4 764 864
a 25 5 813 913
a 25 6 720 820
a 25 7 728 828
a 25 8 776 876
a 25 9 390 490
a 25 10 430 530
a 25 11 442 542
a 25 12 482 582
a 25 13 424 524
a 25 14 500 600
a 25 15 481 581
a 25 16 494 594
a 25 17 531 631
a 25 18 90 190
a 25 19 86 186
a 25 20 122 222
a 25 21 50 150
a 25 22 111 211
a 25 23 30 130
a 25 24 104 204
a 25 26 452 552
